% demand
num_movements = 12;
loading_factor = [1700, 1650, 1950, 800, 1650, 1550, 1750, 1850, 1350, 1350, 800, 1600];
pickup_time = [0, 0, 0, 0, 1, 1, 1, 3, 3, 3, 3, 3];
delivery_time = [1, 1, 3, 1, 3, 3, 3, 4, 4, 4, 4, 4];

% transporter definition
total_capacity = 7000;
num_decks = 3;
capacity = [3000, 1000, 3000];

% ways out of decks
num_ways_out = 1;
paths_out = array3d(decks, ways_out, decks, [
% ways out of deck d1
2, 3, 0, 

% ways out of deck d2
3, 0, 0, 

% ways out of deck d3
0, 0, 0,	

]);

